2
pbc=[T, T, T] Lattice="0.00000000 2.82685000 2.82685000 2.82685000 0.00000000 2.82685000 2.82685000 2.82685000 0.00000000" Properties=species:S:1:pos:R:3:velocities:R:3:mass:R:1:charge:R:1:magnetic_moment:R:1:Z:I:1
Ga         0.00000000       0.00000000       0.00000000         0.00000000       0.00000000       0.00000000        69.72300000         0.00000000         0.00000000         31
As         1.41342500       1.41342500       1.41342500         0.00000000       0.00000000       0.00000000        74.92159500         0.00000000         0.00000000         33
